SCIP Status        : problem creation / modification
Total Time         :       0.01
  reading          :       0.01
Original Problem   :
  Problem name     : main4.zpl
  Variables        : 405 (405 binary, 0 integer, 0 implicit integer, 0 continuous)
  Constraints      : 0 initial, 485 maximal
  Objective        : minimize, 405 non-zeros (abs.min = 0.00187, abs.max = 5700)
